n = 20
Q1 = [0 0 41 21 26 42 28 0 22 0 42 0 0 13 48 40 0 15 46 15; 0 0 0 34 0 44 22 38 12 32 0 21 41 0 0 46 12 10 30 50; 0 0 0 22 21 13 47 0 8 44 29 33 36 28 21 20 33 14 15 0; 0 0 0 0 38 0 15 41 36 26 47 48 9 0 0 0 0 9 50 28; 0 0 0 0 0 46 0 0 46 0 22 16 0 43 0 38 42 40 0 36; 0 0 0 0 0 0 0 46 22 30 33 0 19 0 43 9 9 32 30 0; 0 0 0 0 0 0 0 30 46 30 21 27 0 28 49 32 0 13 5 13; 0 0 0 0 0 0 0 0 33 48 19 20 18 40 45 47 0 37 0 8; 0 0 0 0 0 0 0 0 0 0 39 46 15 8 0 19 0 28 30 11; 0 0 0 0 0 0 0 0 0 0 41 44 32 0 22 10 0 41 0 0; 0 0 0 0 0 0 0 0 0 0 0 39 39 5 46 33 40 0 50 17; 0 0 0 0 0 0 0 0 0 0 0 0 0 11 0 24 30 0 48 7; 0 0 0 0 0 0 0 0 0 0 0 0 0 0 0 27 7 16 45 6; 0 0 0 0 0 0 0 0 0 0 0 0 0 0 46 39 34 0 47 35; 0 0 0 0 0 0 0 0 0 0 0 0 0 0 0 27 0 26 34 6; 0 0 0 0 0 0 0 0 0 0 0 0 0 0 0 0 0 35 9 11; 0 0 0 0 0 0 0 0 0 0 0 0 0 0 0 0 0 13 18 13; 0 0 0 0 0 0 0 0 0 0 0 0 0 0 0 0 0 0 12 14; 0 0 0 0 0 0 0 0 0 0 0 0 0 0 0 0 0 0 0 41; 0 0 0 0 0 0 0 0 0 0 0 0 0 0 0 0 0 0 0 0]
Q2 = [0.0 0.0 9.0 48.0 23.0 0.0 5.0 0.0 30.0 0.0 1.0 0.0 0.0 41.0 1.0 9.0 0.0 41.0 2.0 50.0; 0.0 0.0 0.0 10.0 0.0 0.0 34.0 8.0 41.0 15.0 0.0 48.0 4.0 0.0 0.0 1.0 47.0 41.0 10.0 0.0; 0.0 0.0 0.0 31.0 47.0 37.0 1.0 0.0 50.0 6.0 1.0 5.0 10.0 15.0 48.0 38.0 16.0 44.0 49.0 0.0; 0.0 0.0 0.0 0.0 6.0 0.0 45.0 5.0 10.0 21.0 2.0 1.0 43.0 0.0 0.0 0.0 0.0 50.0 0.0 12.0; 0.0 0.0 0.0 0.0 0.0 3.0 0.0 0.0 0.0 0.0 42.0 35.0 0.0 6.0 0.0 3.0 2.0 7.0 0.0 13.0; 0.0 0.0 0.0 0.0 0.0 0.0 0.0 1.0 43.0 20.0 14.0 0.0 49.0 0.0 6.0 48.0 48.0 14.0 9.0 0.0; 0.0 0.0 0.0 0.0 0.0 0.0 0.0 15.0 1.0 6.0 41.0 2.0 0.0 5.0 0.0 1.0 0.0 39.0 48.0 50.0; 0.0 0.0 0.0 0.0 0.0 0.0 0.0 0.0 1.0 0.0 44.0 42.0 33.0 6.0 5.0 2.0 0.0 10.0 0.0 50.0; 0.0 0.0 0.0 0.0 0.0 0.0 0.0 0.0 0.0 0.0 5.0 4.0 45.0 47.0 0.0 39.0 0.0 11.0 18.0 43.0; 0.0 0.0 0.0 0.0 0.0 0.0 0.0 0.0 0.0 0.0 9.0 3.0 14.0 0.0 31.0 47.0 0.0 7.0 0.0 0.0; 0.0 0.0 0.0 0.0 0.0 0.0 0.0 0.0 0.0 0.0 0.0 10.0 6.0 49.0 4.0 12.0 5.0 0.0 0.0 49.0; 0.0 0.0 0.0 0.0 0.0 0.0 0.0 0.0 0.0 0.0 0.0 0.0 0.0 44.0 0.0 28.0 19.0 0.0 2.0 49.0; 0.0 0.0 0.0 0.0 0.0 0.0 0.0 0.0 0.0 0.0 0.0 0.0 0.0 0.0 0.0 14.0 50.0 47.0 3.0 49.0; 0.0 0.0 0.0 0.0 0.0 0.0 0.0 0.0 0.0 0.0 0.0 0.0 0.0 0.0 0.0 0.0 12.0 0.0 3.0 10.0; 0.0 0.0 0.0 0.0 0.0 0.0 0.0 0.0 0.0 0.0 0.0 0.0 0.0 0.0 0.0 13.0 0.0 17.0 3.0 48.0; 0.0 0.0 0.0 0.0 0.0 0.0 0.0 0.0 0.0 0.0 0.0 0.0 0.0 0.0 0.0 0.0 0.0 7.0 42.0 46.0; 0.0 0.0 0.0 0.0 0.0 0.0 0.0 0.0 0.0 0.0 0.0 0.0 0.0 0.0 0.0 0.0 0.0 39.0 40.0 41.0; 0.0 0.0 0.0 0.0 0.0 0.0 0.0 0.0 0.0 0.0 0.0 0.0 0.0 0.0 0.0 0.0 0.0 0.0 41.0 36.0; 0.0 0.0 0.0 0.0 0.0 0.0 0.0 0.0 0.0 0.0 0.0 0.0 0.0 0.0 0.0 0.0 0.0 0.0 0.0 0.0; 0.0 0.0 0.0 0.0 0.0 0.0 0.0 0.0 0.0 0.0 0.0 0.0 0.0 0.0 0.0 0.0 0.0 0.0 0.0 0.0]
Q3 = [0 69 9 0 12 7 38 69 14 69 3 69 69 9 2 9 69 11 8 0; 0 0 69 3 69 4 0 0 6 0 69 0 7 69 69 4 0 2 26 9; 0 0 0 16 0 1 18 69 1 3 40 5 15 6 0 4 18 5 5 69; 0 0 0 0 8 69 7 10 20 20 11 9 10 69 69 69 69 5 15 14; 0 0 0 0 0 10 69 69 16 69 1 15 69 12 69 24 4 6 69 1; 0 0 0 0 0 0 69 22 0 13 8 69 1 69 8 7 9 2 11 69; 0 0 0 0 0 0 0 5 18 1 1 65 69 65 18 52 69 11 11 5; 0 0 0 0 0 0 0 0 51 8 1 7 4 10 2 19 69 4 69 8; 0 0 0 0 0 0 0 0 0 69 1 5 6 11 69 4 69 6 20 9; 0 0 0 0 0 0 0 0 0 0 14 5 19 69 8 1 69 3 69 69; 0 0 0 0 0 0 0 0 0 0 0 18 11 3 8 1 2 69 18 1; 0 0 0 0 0 0 0 0 0 0 0 0 69 14 69 2 19 69 2 1; 0 0 0 0 0 0 0 0 0 0 0 0 0 69 69 6 12 1 10 7; 0 0 0 0 0 0 0 0 0 0 0 0 0 0 3 1 13 69 13 21; 0 0 0 0 0 0 0 0 0 0 0 0 0 0 0 17 69 3 20 1; 0 0 0 0 0 0 0 0 0 0 0 0 0 0 0 0 69 27 8 8; 0 0 0 0 0 0 0 0 0 0 0 0 0 0 0 0 0 4 3 3; 0 0 0 0 0 0 0 0 0 0 0 0 0 0 0 0 0 0 10 10; 0 0 0 0 0 0 0 0 0 0 0 0 0 0 0 0 0 0 0 14; 0 0 0 0 0 0 0 0 0 0 0 0 0 0 0 0 0 0 0 0]
